\ Model Routes
\ LP format - for model browsing. Use MPS format to capture full model detail.
Maximize
  - 191.7153353028244 R{0,0} + 623.2046552982704 R{0,1}
   + 623.2046552982704 R{0,2} - 249.2301939667805 R{0,3}
   - 17.2186063228686 R{0,4} + 1085.481438609255 R{0,5}
   + 1085.481438609255 R{0,6} + 50.21028675269167 R{0,7}
   + 532.3864684999421 R{0,8} + 1455.545556803535 R{0,9}
   + 1452.293809839529 R{0,10} + 345.9330160960111 R{0,11}
   + 532.3864684999421 R{0,12} + 1029.943244018977 R{0,13}
   + 1458.094459827343 R{0,14} + 647.6973043899858 R{0,15}
   + 1747.445370954072 R{0,16} + 701.7634441104661 R{0,17}
   + 640.3040643452078 R{0,18} + 1434.716551217523 R{0,19}
   + 705.803383581326 R{0,20} - 256.140831891889 R{1,0}
   + 368.0124135284808 R{1,1} + 1065.704601311744 R{1,2}
   + 1261.40259154674 R{1,3} + 1150.262776784234 R{1,4}
   + 1391.493458063637 R{1,5} + 1062.22497488352 R{1,6}
   + 1023.441262800901 R{1,7} + 1038.33260556797 R{1,8}
   + 1042.049200946814 R{1,9} + 1012.130195200691 R{1,10}
   + 584.2645871547093 R{1,11} + 1343.834619484941 R{1,12}
   + 1384.483558853827 R{1,13} + 899.6590035045151 R{1,14}
   + 1198.881248318718 R{2,0} + 1198.881248318718 R{2,1}
   - 278.4443928850388 R{2,2} - 59.13410337035452 R{2,3}
   + 602.7748664658451 R{2,4} + 1100.505917706273 R{2,5}
   + 725.2351538442874 R{2,6} + 808.2637496301763 R{2,7}
   + 1448.248264420176 R{2,8} + 725.2351538442874 R{2,9}
   + 117.3864940348481 R{2,10} + 1883.046286946223 R{2,11}
   + 661.1183809175574 R{2,12} + 786.3392945839764 R{2,13}
   + 629.9638570536306 R{2,14} + 894.4579323286209 R{2,15}
   + 774.166852893441 R{2,16} - 260.2482995389823 R{3,0}
   + 468.7985517431167 R{3,1} + 997.977727065218 R{3,2}
   + 264.2461283351852 R{3,3} + 246.1996949613905 R{3,4}
   + 1277.852295115412 R{3,5} + 1173.469460778906 R{3,6}
   + 839.9465806358833 R{3,7} + 920.3750940555783 R{3,8}
   + 411.0554575520694 R{3,9} + 417.5497857600096 R{3,10}
   + 895.2900373016937 R{3,11} + 137.5144926523394 R{3,12}
   + 431.6360814536006 R{3,13} - 242.5208875955131 R{4,0}
   + 1138.167312495808 R{4,1} + 1454.744895582121 R{4,2}
   + 1035.629651818014 R{4,3} + 1501.80116706671 R{4,4}
   + 883.4841299475297 R{4,5} + 1318.375634969519 R{4,6}
   + 665.0236327174914 R{4,7} + 1487.42023908069 R{4,8}
   + 1203.40602136682 R{4,9} + 733.4329967177202 R{4,10}
   + 1035.629651818014 R{4,11} + 826.9746687053639 R{4,12}
   + 657.8723811056568 R{4,13} + 665.0236327174914 R{4,14}
   + 879.7211753581009 R{4,15} + 1069.321175358101 R{4,16}
   + 628.1000403024974 R{4,17} + 1657.727267862749 R{4,18}
   - 231.9775664337766 R{5,0} + 251.2011413408645 R{5,1}
   + 835.6653627301428 R{5,2} + 130.3159053000199 R{5,3}
   + 83.418257037986 R{5,4} + 164.9370407332623 R{5,5}
   + 83.418257037986 R{5,6} + 1113.215079898288 R{5,7}
   + 298.0987896028985 R{5,8} + 251.2011413408645 R{5,9}
   + 164.9370407332623 R{5,10} + 569.5132836738571 R{5,11}
   - 231.1436095783099 R{6,0} + 1291.020798910079 R{6,1}
   + 1395.48646502248 R{6,2} + 1911.078048938017 R{6,3}
   + 2502.567654983323 R{6,4} + 62.1165399774404 R{6,5}
   + 1341.424374175866 R{6,6} + 2592.018593220651 R{6,7}
   + 2166.81649157882 R{6,8} + 1341.424374175866 R{6,9}
   + 1416.824752408696 R{6,10} + 1736.216682711442 R{6,11}
   + 1701.447782113868 R{6,12} + 1744.09112189464 R{6,13}
   + 1701.447782113868 R{6,14} + 1493.456937417236 R{6,15}
   + 2557.249692623078 R{6,16} + 1715.02583401507 R{6,17}
   + 1350.559405153633 R{6,18} + 1493.456937417236 R{6,19}
   + 1312.359086296295 R{6,20}
Subject To
 R00: R{0,0} <= 1
 R01: R{0,1} <= 1
 R02: R{0,2} <= 1
 R03: R{0,3} <= 1
 R04: R{0,4} <= 1
 R05: R{0,5} <= 1
 R06: R{0,6} <= 1
 R07: R{0,7} <= 1
 R08: R{0,8} <= 1
 R09: R{0,9} <= 1
 R010: R{0,10} <= 1
 R011: R{0,11} <= 1
 R012: R{0,12} <= 1
 R013: R{0,13} <= 1
 R014: R{0,14} <= 1
 R015: R{0,15} <= 1
 R016: R{0,16} <= 1
 R017: R{0,17} <= 1
 R018: R{0,18} <= 1
 R019: R{0,19} <= 1
 R020: R{0,20} <= 1
 R021: R{1,0} <= 1
 R022: R{1,1} <= 1
 R023: R{1,2} <= 1
 R024: R{1,3} <= 1
 R025: R{1,4} <= 1
 R026: R{1,5} <= 1
 R027: R{1,6} <= 1
 R028: R{1,7} <= 1
 R029: R{1,8} <= 1
 R030: R{1,9} <= 1
 R031: R{1,10} <= 1
 R032: R{1,11} <= 1
 R033: R{1,12} <= 1
 R034: R{1,13} <= 1
 R035: R{1,14} <= 1
 R036: R{2,0} <= 1
 R037: R{2,1} <= 1
 R038: R{2,2} <= 1
 R039: R{2,3} <= 1
 R040: R{2,4} <= 1
 R041: R{2,5} <= 1
 R042: R{2,6} <= 1
 R043: R{2,7} <= 1
 R044: R{2,8} <= 1
 R045: R{2,9} <= 1
 R046: R{2,10} <= 1
 R047: R{2,11} <= 1
 R048: R{2,12} <= 1
 R049: R{2,13} <= 1
 R050: R{2,14} <= 1
 R051: R{2,15} <= 1
 R052: R{2,16} <= 1
 R053: R{3,0} <= 1
 R054: R{3,1} <= 1
 R055: R{3,2} <= 1
 R056: R{3,3} <= 1
 R057: R{3,4} <= 1
 R058: R{3,5} <= 1
 R059: R{3,6} <= 1
 R060: R{3,7} <= 1
 R061: R{3,8} <= 1
 R062: R{3,9} <= 1
 R063: R{3,10} <= 1
 R064: R{3,11} <= 1
 R065: R{3,12} <= 1
 R066: R{3,13} <= 1
 R067: R{4,0} <= 1
 R068: R{4,1} <= 1
 R069: R{4,2} <= 1
 R070: R{4,3} <= 1
 R071: R{4,4} <= 1
 R072: R{4,5} <= 1
 R073: R{4,6} <= 1
 R074: R{4,7} <= 1
 R075: R{4,8} <= 1
 R076: R{4,9} <= 1
 R077: R{4,10} <= 1
 R078: R{4,11} <= 1
 R079: R{4,12} <= 1
 R080: R{4,13} <= 1
 R081: R{4,14} <= 1
 R082: R{4,15} <= 1
 R083: R{4,16} <= 1
 R084: R{4,17} <= 1
 R085: R{4,18} <= 1
 R086: R{5,0} <= 1
 R087: R{5,1} <= 1
 R088: R{5,2} <= 1
 R089: R{5,3} <= 1
 R090: R{5,4} <= 1
 R091: R{5,5} <= 1
 R092: R{5,6} <= 1
 R093: R{5,7} <= 1
 R094: R{5,8} <= 1
 R095: R{5,9} <= 1
 R096: R{5,10} <= 1
 R097: R{5,11} <= 1
 R098: R{6,0} <= 1
 R099: R{6,1} <= 1
 R0100: R{6,2} <= 1
 R0101: R{6,3} <= 1
 R0102: R{6,4} <= 1
 R0103: R{6,5} <= 1
 R0104: R{6,6} <= 1
 R0105: R{6,7} <= 1
 R0106: R{6,8} <= 1
 R0107: R{6,9} <= 1
 R0108: R{6,10} <= 1
 R0109: R{6,11} <= 1
 R0110: R{6,12} <= 1
 R0111: R{6,13} <= 1
 R0112: R{6,14} <= 1
 R0113: R{6,15} <= 1
 R0114: R{6,16} <= 1
 R0115: R{6,17} <= 1
 R0116: R{6,18} <= 1
 R0117: R{6,19} <= 1
 R0118: R{6,20} <= 1
 R1_0: R{0,0} + R{0,1} + R{0,2} + R{0,3} + R{0,4} + R{0,5} + R{0,6}
   + R{0,7} + R{0,8} + R{0,9} + R{0,10} + R{0,11} + R{0,12} + R{0,13}
   + R{0,14} + R{0,15} + R{0,16} + R{0,17} + R{0,18} + R{0,19} + R{0,20}
   <= 1
 R1_1: R{1,0} + R{1,1} + R{1,2} + R{1,3} + R{1,4} + R{1,5} + R{1,6}
   + R{1,7} + R{1,8} + R{1,9} + R{1,10} + R{1,11} + R{1,12} + R{1,13}
   + R{1,14} <= 1
 R1_2: R{2,0} + R{2,1} + R{2,2} + R{2,3} + R{2,4} + R{2,5} + R{2,6}
   + R{2,7} + R{2,8} + R{2,9} + R{2,10} + R{2,11} + R{2,12} + R{2,13}
   + R{2,14} + R{2,15} + R{2,16} <= 1
 R1_3: R{3,0} + R{3,1} + R{3,2} + R{3,3} + R{3,4} + R{3,5} + R{3,6}
   + R{3,7} + R{3,8} + R{3,9} + R{3,10} + R{3,11} + R{3,12} + R{3,13} <= 1
 R1_4: R{4,0} + R{4,1} + R{4,2} + R{4,3} + R{4,4} + R{4,5} + R{4,6}
   + R{4,7} + R{4,8} + R{4,9} + R{4,10} + R{4,11} + R{4,12} + R{4,13}
   + R{4,14} + R{4,15} + R{4,16} + R{4,17} + R{4,18} <= 1
 R1_5: R{5,0} + R{5,1} + R{5,2} + R{5,3} + R{5,4} + R{5,5} + R{5,6}
   + R{5,7} + R{5,8} + R{5,9} + R{5,10} + R{5,11} <= 1
 R1_6: R{6,0} + R{6,1} + R{6,2} + R{6,3} + R{6,4} + R{6,5} + R{6,6}
   + R{6,7} + R{6,8} + R{6,9} + R{6,10} + R{6,11} + R{6,12} + R{6,13}
   + R{6,14} + R{6,15} + R{6,16} + R{6,17} + R{6,18} + R{6,19} + R{6,20}
   <= 1
 R2_0: <= 0
 R2_1: 10 R{0,9} + 10 R{0,10} + 10 R{0,11} + 10 R{0,13} + 10 R{0,14}
   + 10 R{0,16} + 10 R{0,18} + 10 R{1,1} + 10 R{1,2} + 10 R{1,6}
   + 10 R{1,7} + 10 R{1,8} + 10 R{1,10} + 10 R{1,12} <= 10
 R2_2: <= 0
 R2_3: 4 R{1,3} + 4 R{1,5} + 4 R{1,9} + 4 R{1,13} + 4 R{3,1} + 4 R{3,2}
   + 4 R{3,5} + 4 R{6,2} + 4 R{6,3} + 4 R{6,7} + 4 R{6,10} + 4 R{6,16}
   <= 4
 R2_4: <= 0
 R2_5: 5 R{0,4} + 5 R{0,5} + 5 R{0,6} + 5 R{5,3} + 5 R{5,8} + 5 R{5,11}
   <= 5
 R2_6: 10 R{0,16} + 10 R{0,17} + 10 R{0,18} + 10 R{0,19} + 10 R{1,1}
   + 10 R{1,2} + 10 R{1,3} + 10 R{1,4} + 10 R{1,6} + 10 R{1,7} + 10 R{1,8}
   + 10 R{1,10} + 10 R{1,12} + 10 R{2,15} + 10 R{5,11} <= 10
 R2_7: 6 R{1,1} + 6 R{1,2} + 6 R{1,3} + 6 R{1,4} + 6 R{1,5} + 6 R{1,6}
   + 6 R{1,9} + 6 R{1,11} + 6 R{1,12} + 6 R{1,13} + 6 R{1,14} <= 6
 R2_8: <= 0
 R2_9: 12 R{4,1} + 12 R{4,2} + 12 R{4,3} + 12 R{4,4} + 12 R{4,5}
   + 12 R{4,6} + 12 R{4,7} + 12 R{4,8} + 12 R{4,9} + 12 R{4,10}
   + 12 R{4,11} + 12 R{4,12} + 12 R{4,13} + 12 R{4,14} + 12 R{4,16}
   + 12 R{4,17} + 12 R{4,18} <= 12
 R2_10: 8 R{0,8} + 8 R{0,12} + 8 R{0,15} + 8 R{6,1} + 8 R{6,2} + 8 R{6,3}
   + 8 R{6,4} + 8 R{6,6} + 8 R{6,7} + 8 R{6,8} + 8 R{6,9} + 8 R{6,11}
   + 8 R{6,13} <= 8
 R2_11: <= 0
 R2_12: <= 0
 R2_13: <= 0
 R2_14: <= 0
 R2_15: 11 R{0,0} + 11 R{0,1} + 11 R{0,2} + 11 R{0,8} + 11 R{0,12}
   + 11 R{0,15} + 11 R{0,20} + 11 R{4,1} + 11 R{4,2} + 11 R{4,4}
   + 11 R{4,10} <= 11
 R2_16: <= 0
 R2_17: <= 0
 R2_18: <= 0
 R2_19: 11 R{1,5} + 11 R{1,9} + 11 R{1,11} + 11 R{1,13} + 11 R{1,14}
   + 11 R{3,5} + 11 R{3,6} + 11 R{3,8} + 11 R{3,11} + 11 R{6,1} + 11 R{6,2}
   + 11 R{6,3} + 11 R{6,4} + 11 R{6,6} + 11 R{6,7} + 11 R{6,8} + 11 R{6,9}
   + 11 R{6,10} + 11 R{6,11} + 11 R{6,12} + 11 R{6,14} + 11 R{6,15}
   + 11 R{6,16} + 11 R{6,19} + 11 R{6,20} <= 11
 R2_20: 13 R{2,5} + 13 R{2,7} + 13 R{2,8} + 13 R{2,11} + 13 R{2,13}
   + 13 R{4,1} + 13 R{4,2} + 13 R{4,4} + 13 R{4,8} <= 13
 R2_21: <= 0
 R2_22: <= 0
 R2_23: 14 R{0,1} + 14 R{0,2} + 14 R{0,15} + 14 R{2,0} + 14 R{2,1}
   + 14 R{2,16} + 14 R{6,4} + 14 R{6,8} <= 14
 R2_24: 10 R{3,1} + 10 R{3,2} + 10 R{3,3} + 10 R{3,4} + 10 R{3,5}
   + 10 R{3,6} + 10 R{3,7} + 10 R{3,9} + 10 R{3,10} + 10 R{3,12}
   + 10 R{3,13} <= 10
 R2_25: 13 R{4,1} + 13 R{4,2} + 13 R{4,3} + 13 R{4,4} + 13 R{4,5}
   + 13 R{4,6} + 13 R{4,7} + 13 R{4,8} + 13 R{4,9} + 13 R{4,10}
   + 13 R{4,11} + 13 R{4,12} + 13 R{4,13} + 13 R{4,14} + 13 R{4,15}
   + 13 R{4,16} + 13 R{4,18} <= 13
 R2_26: 6 R{5,1} + 6 R{5,2} + 6 R{5,3} + 6 R{5,4} + 6 R{5,5} + 6 R{5,6}
   + 6 R{5,7} + 6 R{5,8} + 6 R{5,9} + 6 R{5,10} + 6 R{5,11} <= 6
 R2_27: 5 R{0,5} + 5 R{0,6} + 5 R{0,9} + 5 R{0,10} + 5 R{0,14} + 5 R{0,16}
   + 5 R{0,17} + 5 R{0,19} + 5 R{2,7} + 5 R{2,11} + 5 R{4,9} + 5 R{6,1}
   + 5 R{6,2} + 5 R{6,3} + 5 R{6,4} + 5 R{6,6} + 5 R{6,7} + 5 R{6,8}
   + 5 R{6,9} + 5 R{6,10} + 5 R{6,11} + 5 R{6,12} + 5 R{6,13} + 5 R{6,14}
   + 5 R{6,15} + 5 R{6,16} + 5 R{6,17} + 5 R{6,18} + 5 R{6,19} + 5 R{6,20}
   <= 5
 R2_28: <= 0
 R2_29: <= 0
 R2_30: <= 0
 R2_31: <= 0
 R2_32: 7 R{5,1} + 7 R{5,2} + 7 R{5,5} + 7 R{5,7} + 7 R{5,8} + 7 R{5,9}
   + 7 R{5,10} + 7 R{5,11} <= 7
 R2_33: <= 0
 R2_34: 5 R{4,18} <= 5
 R2_35: 13 R{4,18} <= 13
 R2_36: <= 0
 R2_37: 5 R{3,1} + 5 R{3,2} + 5 R{3,3} + 5 R{3,4} + 5 R{3,7} + 5 R{3,9}
   + 5 R{3,10} + 5 R{3,12} + 5 R{3,13} <= 5
 R2_38: <= 0
 R2_39: <= 0
 R2_40: 15 R{2,3} + 15 R{2,4} + 15 R{2,5} + 15 R{2,7} + 15 R{2,8}
   + 15 R{2,11} + 15 R{2,12} + 15 R{2,13} + 15 R{2,14} + 15 R{2,15} <= 15
 R2_41: 5 R{1,3} + 5 R{1,4} + 5 R{1,5} + 5 R{1,9} + 5 R{1,11} + 5 R{1,13}
   + 5 R{6,7} + 5 R{6,8} + 5 R{6,11} + 5 R{6,12} + 5 R{6,14} + 5 R{6,15}
   + 5 R{6,16} + 5 R{6,18} + 5 R{6,19} <= 5
 R2_42: 4 R{2,3} + 4 R{2,4} + 4 R{2,5} + 4 R{2,7} + 4 R{2,8} + 4 R{2,11}
   + 4 R{2,12} + 4 R{2,13} + 4 R{2,14} + 4 R{2,15} <= 4
 R2_43: <= 0
 R2_44: <= 0
 R2_45: <= 0
 R2_46: 9 R{0,8} + 9 R{0,12} + 9 R{0,20} + 9 R{4,9} + 9 R{4,12} + 9 R{4,15}
   + 9 R{4,16} + 9 R{4,17} + 9 R{4,18} <= 9
 R2_47: 7 R{5,1} + 7 R{5,2} + 7 R{5,3} + 7 R{5,4} + 7 R{5,5} + 7 R{5,6}
   + 7 R{5,8} + 7 R{5,9} + 7 R{5,10} + 7 R{5,11} <= 7
 R2_48: 4 R{4,1} + 4 R{4,2} + 4 R{4,3} + 4 R{4,4} + 4 R{4,5} + 4 R{4,8}
   + 4 R{4,10} + 4 R{4,11} + 4 R{4,13} + 4 R{4,15} + 4 R{4,16} + 4 R{4,18}
   <= 4
 R2_49: <= 0
 R2_50: <= 0
 R2_51: 11 R{4,1} + 11 R{4,2} + 11 R{4,3} + 11 R{4,4} + 11 R{4,8}
   + 11 R{4,10} + 11 R{4,11} <= 11
 R2_52: <= 0
 R2_53: 13 R{4,1} + 13 R{4,10} <= 13
 R2_54: 9 R{3,1} + 9 R{3,2} + 9 R{3,3} + 9 R{3,4} + 9 R{3,5} + 9 R{3,6}
   + 9 R{3,8} + 9 R{3,9} + 9 R{3,10} + 9 R{3,11} + 9 R{3,13} <= 9
 R2_55: 8 R{6,1} + 8 R{6,2} + 8 R{6,3} + 8 R{6,4} + 8 R{6,6} + 8 R{6,7}
   + 8 R{6,8} + 8 R{6,9} + 8 R{6,10} + 8 R{6,11} + 8 R{6,12} + 8 R{6,13}
   + 8 R{6,14} + 8 R{6,15} + 8 R{6,16} + 8 R{6,17} + 8 R{6,18} + 8 R{6,19}
   + 8 R{6,20} <= 8
 R2_56: 6 R{2,0} + 6 R{2,1} + 6 R{2,6} + 6 R{2,9} + 6 R{4,2} + 6 R{4,3}
   + 6 R{4,4} + 6 R{4,5} + 6 R{4,6} + 6 R{4,7} + 6 R{4,8} + 6 R{4,9}
   + 6 R{4,11} + 6 R{4,12} + 6 R{4,13} + 6 R{4,14} + 6 R{4,15} + 6 R{4,16}
   + 6 R{4,17} + 6 R{4,18} <= 6
 R2_57: <= 0
 R2_58: <= 0
 R2_59: 10 R{1,9} + 10 R{1,12} + 10 R{4,18} <= 10
 R2_60: <= 0
 R2_61: <= 0
 R2_62: <= 0
 R2_63: <= 0
 R2_64: <= 0
 R2_65: 5 R{0,20} + 5 R{2,0} + 5 R{2,1} + 5 R{2,6} + 5 R{2,9} + 5 R{2,16}
   + 5 R{6,1} + 5 R{6,2} + 5 R{6,3} + 5 R{6,4} + 5 R{6,6} + 5 R{6,7}
   + 5 R{6,8} + 5 R{6,9} + 5 R{6,10} + 5 R{6,11} + 5 R{6,12} + 5 R{6,13}
   + 5 R{6,14} + 5 R{6,16} + 5 R{6,17} + 5 R{6,18} + 5 R{6,20} <= 5
 R2_66: 7 R{6,1} + 7 R{6,2} + 7 R{6,4} + 7 R{6,6} + 7 R{6,7} + 7 R{6,8}
   + 7 R{6,9} + 7 R{6,10} + 7 R{6,11} + 7 R{6,12} + 7 R{6,13} + 7 R{6,14}
   + 7 R{6,15} + 7 R{6,16} + 7 R{6,17} + 7 R{6,18} + 7 R{6,19} + 7 R{6,20}
   <= 7
 R2_67: 3 R{0,1} + 3 R{0,2} + 3 R{0,8} + 3 R{0,12} + 3 R{0,15} + 3 R{0,20}
   + 3 R{2,0} + 3 R{2,1} + 3 R{2,6} + 3 R{2,9} + 3 R{2,10} + 3 R{2,16}
   <= 3
 R2_68: 6 R{6,1} + 6 R{6,2} + 6 R{6,3} + 6 R{6,4} + 6 R{6,6} + 6 R{6,7}
   + 6 R{6,8} + 6 R{6,9} + 6 R{6,10} + 6 R{6,11} + 6 R{6,12} + 6 R{6,13}
   + 6 R{6,14} + 6 R{6,15} + 6 R{6,16} + 6 R{6,17} + 6 R{6,18} + 6 R{6,19}
   + 6 R{6,20} <= 6
 R2_69: 7 R{4,1} + 7 R{4,2} + 7 R{4,3} + 7 R{4,4} + 7 R{4,5} + 7 R{4,6}
   + 7 R{4,7} + 7 R{4,8} + 7 R{4,10} + 7 R{4,11} + 7 R{4,14} <= 7
 R2_70: 11 R{1,1} + 11 R{1,2} + 11 R{1,3} + 11 R{1,4} + 11 R{1,5}
   + 11 R{1,7} + 11 R{1,9} + 11 R{1,11} + 11 R{1,12} + 11 R{1,14} <= 11
 R2_71: 7 R{3,1} + 7 R{3,9} + 7 R{3,10} + 7 R{3,13} <= 7
 R2_72: <= 0
 R2_73: <= 0
 R2_74: 5 R{5,1} + 5 R{5,3} + 5 R{5,4} + 5 R{5,6} + 5 R{5,8} + 5 R{5,9}
   + 5 R{5,11} <= 5
 R2_75: 8 R{6,1} + 8 R{6,2} + 8 R{6,3} + 8 R{6,4} + 8 R{6,6} + 8 R{6,7}
   + 8 R{6,8} + 8 R{6,9} + 8 R{6,10} + 8 R{6,11} + 8 R{6,12} + 8 R{6,13}
   + 8 R{6,14} + 8 R{6,15} + 8 R{6,16} + 8 R{6,17} + 8 R{6,18} + 8 R{6,19}
   + 8 R{6,20} <= 8
 R2_76: 12 R{0,4} + 12 R{0,5} + 12 R{0,6} + 12 R{0,7} + 12 R{0,9}
   + 12 R{0,10} + 12 R{0,11} + 12 R{0,13} + 12 R{0,14} + 12 R{0,16}
   + 12 R{0,17} + 12 R{0,18} + 12 R{0,19} + 12 R{2,8} + 12 R{2,11}
   + 12 R{2,13} + 12 R{5,7} + 12 R{6,5} <= 12
 R2_77: 7 R{0,5} + 7 R{0,6} + 7 R{0,9} + 7 R{0,10} + 7 R{0,13} + 7 R{0,14}
   + 7 R{0,16} + 7 R{0,19} + 7 R{1,2} + 7 R{1,3} + 7 R{1,4} + 7 R{1,5}
   + 7 R{1,6} + 7 R{1,7} + 7 R{1,8} + 7 R{1,10} + 7 R{1,12} + 7 R{1,13}
   + 7 R{1,14} + 7 R{2,4} + 7 R{2,5} + 7 R{2,8} + 7 R{2,11} + 7 R{2,12}
   + 7 R{2,14} + 7 R{2,15} + 7 R{3,2} + 7 R{3,5} + 7 R{3,6} + 7 R{3,7}
   + 7 R{3,8} + 7 R{3,11} + 7 R{4,6} + 7 R{5,2} + 7 R{5,7} + 7 R{6,3}
   + 7 R{6,4} + 7 R{6,7} + 7 R{6,13} + 7 R{6,16} + 7 R{6,17} <= 7
Bounds
End
